20 20
70 40 1
21 4 1
62 52 1
15 73 1
35 89 1
11 56 1
65 62 1
54 30 1
65 16 1
22 7 1
79 27 1
26 31 1
84 8 1
10 80 1
92 3 1
53 65 1
47 89 1
64 30 1
27 78 1
90 53 1
300 300 
300 300 
300 300 
300 300 
300 300 
300 300 
300 300 
300 300 
300 300 
300 300 
300 300 
300 300 
300 300 
300 300 
300 300 
300 300 
300 300 
300 300 
300 300 
300 300 
